1600 3200
1 2 1
1 41 1
2 3 4
2 42 5
3 4 4
3 43 3
4 5 3
4 44 4
5 6 5
5 45 3
6 7 3
6 46 4
7 8 3
7 47 1
8 9 5
8 48 5
9 10 3
9 49 5
10 11 1
10 50 2
11 12 5
11 51 2
12 13 3
12 52 3
13 14 2
13 53 4
14 15 3
14 54 5
15 16 1
15 55 4
16 17 4
16 56 4
17 18 1
17 57 4
18 19 1
18 58 3
19 20 2
19 59 5
20 21 2
20 60 3
21 22 3
21 61 5
22 23 5
22 62 5
23 24 5
23 63 4
24 25 5
24 64 1
25 26 3
25 65 5
26 27 5
26 66 2
27 28 5
27 67 3
28 29 1
28 68 3
29 30 1
29 69 4
30 31 5
30 70 4
31 32 4
31 71 5
32 33 1
32 72 5
33 34 1
33 73 1
34 35 1
34 74 4
35 36 5
35 75 1
36 37 4
36 76 1
37 38 4
37 77 1
38 39 3
38 78 3
39 40 2
39 79 2
40 80 1
41 42 4
41 81 3
42 43 3
42 82 2
43 44 1
43 83 1
44 45 1
44 84 2
45 46 3
45 85 2
46 47 5
46 86 3
47 48 2
47 87 5
48 49 3
48 88 2
49 50 3
49 89 2
50 51 4
50 90 3
51 52 3
51 91 3
52 53 2
52 92 1
53 54 3
53 93 1
54 55 2
54 94 1
55 56 3
55 95 3
56 57 3
56 96 5
57 58 3
57 97 3
58 59 2
58 98 2
59 60 3
59 99 1
60 61 1
60 100 5
61 62 5
61 101 2
62 63 5
62 102 4
63 64 3
63 103 4
64 65 5
64 104 4
65 66 3
65 105 4
66 67 2
66 106 2
67 68 3
67 107 5
68 69 4
68 108 3
69 70 2
69 109 2
70 71 3
70 110 1
71 72 1
71 111 2
72 73 1
72 112 3
73 74 1
73 113 2
74 75 4
74 114 3
75 76 5
75 115 3
76 77 4
76 116 4
77 78 5
77 117 1
78 79 3
78 118 1
79 80 4
79 119 2
80 120 5
81 82 3
81 121 1
82 83 5
82 122 4
83 84 5
83 123 5
84 85 1
84 124 2
85 86 5
85 125 3
86 87 5
86 126 4
87 88 4
87 127 2
88 89 2
88 128 1
89 90 3
89 129 5
90 91 1
90 130 5
91 92 4
91 131 3
92 93 5
92 132 2
93 94 5
93 133 4
94 95 2
94 134 1
95 96 5
95 135 5
96 97 1
96 136 5
97 98 5
97 137 4
98 99 1
98 138 5
99 100 3
99 139 2
100 101 1
100 140 3
101 102 4
101 141 3
102 103 3
102 142 5
103 104 1
103 143 5
104 105 2
104 144 4
105 106 1
105 145 1
106 107 3
106 146 4
107 108 4
107 147 3
108 109 3
108 148 1
109 110 5
109 149 2
110 111 1
110 150 4
111 112 5
111 151 2
112 113 3
112 152 1
113 114 4
113 153 1
114 115 2
114 154 2
115 116 1
115 155 3
116 117 3
116 156 3
117 118 5
117 157 3
118 119 1
118 158 5
119 120 4
119 159 5
120 160 3
121 122 2
121 161 5
122 123 5
122 162 2
123 124 3
123 163 2
124 125 1
124 164 4
125 126 1
125 165 5
126 127 5
126 166 3
127 128 2
127 167 4
128 129 2
128 168 5
129 130 3
129 169 4
130 131 3
130 170 3
131 132 4
131 171 3
132 133 3
132 172 5
133 134 3
133 173 4
134 135 5
134 174 4
135 136 1
135 175 2
136 137 5
136 176 4
137 138 5
137 177 4
138 139 1
138 178 3
139 140 2
139 179 1
140 141 5
140 180 4
141 142 2
141 181 3
142 143 4
142 182 5
143 144 1
143 183 5
144 145 1
144 184 5
145 146 2
145 185 4
146 147 3
146 186 1
147 148 1
147 187 4
148 149 5
148 188 3
149 150 5
149 189 3
150 151 4
150 190 3
151 152 4
151 191 1
152 153 4
152 192 1
153 154 1
153 193 3
154 155 2
154 194 2
155 156 5
155 195 3
156 157 2
156 196 3
157 158 1
157 197 4
158 159 3
158 198 2
159 160 5
159 199 4
160 200 3
161 162 1
161 201 2
162 163 4
162 202 4
163 164 2
163 203 1
164 165 5
164 204 4
165 166 3
165 205 4
166 167 5
166 206 4
167 168 5
167 207 1
168 169 1
168 208 3
169 170 5
169 209 2
170 171 5
170 210 3
171 172 3
171 211 5
172 173 5
172 212 2
173 174 3
173 213 2
174 175 3
174 214 1
175 176 4
175 215 3
176 177 3
176 216 2
177 178 4
177 217 1
178 179 5
178 218 1
179 180 5
179 219 2
180 181 2
180 220 5
181 182 1
181 221 3
182 183 5
182 222 4
183 184 2
183 223 4
184 185 4
184 224 5
185 186 2
185 225 3
186 187 5
186 226 1
187 188 5
187 227 3
188 189 2
188 228 3
189 190 2
189 229 1
190 191 3
190 230 5
191 192 5
191 231 5
192 193 1
192 232 2
193 194 5
193 233 2
194 195 2
194 234 4
195 196 1
195 235 2
196 197 5
196 236 1
197 198 2
197 237 2
198 199 1
198 238 2
199 200 3
199 239 5
200 240 3
201 202 3
201 241 4
202 203 5
202 242 2
203 204 3
203 243 2
204 205 5
204 244 1
205 206 2
205 245 4
206 207 1
206 246 1
207 208 4
207 247 1
208 209 3
208 248 5
209 210 2
209 249 3
210 211 4
210 250 2
211 212 5
211 251 3
212 213 2
212 252 1
213 214 1
213 253 5
214 215 3
214 254 3
215 216 5
215 255 3
216 217 2
216 256 5
217 218 2
217 257 2
218 219 4
218 258 2
219 220 1
219 259 1
220 221 2
220 260 5
221 222 5
221 261 3
222 223 1
222 262 4
223 224 1
223 263 3
224 225 2
224 264 4
225 226 3
225 265 5
226 227 4
226 266 5
227 228 1
227 267 3
228 229 1
228 268 5
229 230 2
229 269 2
230 231 2
230 270 1
231 232 2
231 271 1
232 233 5
232 272 3
233 234 1
233 273 5
234 235 1
234 274 2
235 236 4
235 275 1
236 237 3
236 276 2
237 238 5
237 277 5
238 239 4
238 278 3
239 240 4
239 279 1
240 280 4
241 242 4
241 281 4
242 243 4
242 282 5
243 244 1
243 283 4
244 245 3
244 284 3
245 246 1
245 285 4
246 247 4
246 286 1
247 248 5
247 287 5
248 249 5
248 288 1
249 250 3
249 289 2
250 251 1
250 290 4
251 252 1
251 291 5
252 253 3
252 292 2
253 254 2
253 293 5
254 255 5
254 294 1
255 256 3
255 295 1
256 257 1
256 296 1
257 258 5
257 297 1
258 259 5
258 298 2
259 260 5
259 299 4
260 261 1
260 300 2
261 262 4
261 301 2
262 263 4
262 302 1
263 264 2
263 303 2
264 265 2
264 304 3
265 266 2
265 305 2
266 267 2
266 306 3
267 268 4
267 307 3
268 269 2
268 308 3
269 270 1
269 309 5
270 271 5
270 310 5
271 272 5
271 311 5
272 273 5
272 312 1
273 274 2
273 313 5
274 275 4
274 314 3
275 276 1
275 315 2
276 277 4
276 316 4
277 278 4
277 317 4
278 279 4
278 318 4
279 280 5
279 319 5
280 320 5
281 282 4
281 321 2
282 283 5
282 322 3
283 284 4
283 323 2
284 285 3
284 324 1
285 286 3
285 325 2
286 287 3
286 326 4
287 288 3
287 327 4
288 289 5
288 328 5
289 290 2
289 329 2
290 291 2
290 330 1
291 292 2
291 331 1
292 293 1
292 332 4
293 294 2
293 333 4
294 295 2
294 334 4
295 296 2
295 335 3
296 297 3
296 336 1
297 298 1
297 337 2
298 299 5
298 338 2
299 300 4
299 339 1
300 301 2
300 340 3
301 302 2
301 341 4
302 303 3
302 342 1
303 304 3
303 343 3
304 305 2
304 344 2
305 306 4
305 345 1
306 307 2
306 346 1
307 308 5
307 347 1
308 309 5
308 348 4
309 310 1
309 349 3
310 311 1
310 350 3
311 312 3
311 351 3
312 313 5
312 352 4
313 314 2
313 353 2
314 315 1
314 354 5
315 316 5
315 355 2
316 317 4
316 356 2
317 318 1
317 357 2
318 319 5
318 358 3
319 320 5
319 359 1
320 360 3
321 322 4
321 361 1
322 323 4
322 362 4
323 324 3
323 363 3
324 325 5
324 364 1
325 326 3
325 365 3
326 327 2
326 366 5
327 328 3
327 367 5
328 329 1
328 368 1
329 330 2
329 369 1
330 331 5
330 370 1
331 332 3
331 371 4
332 333 5
332 372 5
333 334 2
333 373 1
334 335 2
334 374 2
335 336 3
335 375 5
336 337 5
336 376 2
337 338 2
337 377 5
338 339 3
338 378 5
339 340 4
339 379 3
340 341 2
340 380 2
341 342 4
341 381 2
342 343 2
342 382 1
343 344 3
343 383 5
344 345 1
344 384 3
345 346 3
345 385 2
346 347 5
346 386 1
347 348 1
347 387 4
348 349 5
348 388 2
349 350 5
349 389 2
350 351 2
350 390 2
351 352 3
351 391 5
352 353 1
352 392 1
353 354 3
353 393 5
354 355 4
354 394 2
355 356 2
355 395 3
356 357 5
356 396 3
357 358 4
357 397 3
358 359 2
358 398 5
359 360 2
359 399 2
360 400 4
361 362 2
361 401 5
362 363 1
362 402 3
363 364 2
363 403 3
364 365 3
364 404 1
365 366 2
365 405 4
366 367 2
366 406 2
367 368 1
367 407 4
368 369 1
368 408 3
369 370 5
369 409 4
370 371 4
370 410 3
371 372 4
371 411 3
372 373 3
372 412 3
373 374 3
373 413 2
374 375 5
374 414 4
375 376 3
375 415 3
376 377 2
376 416 5
377 378 2
377 417 3
378 379 5
378 418 1
379 380 1
379 419 5
380 381 4
380 420 3
381 382 4
381 421 4
382 383 2
382 422 3
383 384 4
383 423 2
384 385 5
384 424 1
385 386 5
385 425 2
386 387 2
386 426 4
387 388 4
387 427 2
388 389 5
388 428 1
389 390 4
389 429 1
390 391 2
390 430 5
391 392 5
391 431 4
392 393 5
392 432 2
393 394 1
393 433 5
394 395 5
394 434 2
395 396 4
395 435 5
396 397 3
396 436 5
397 398 2
397 437 4
398 399 4
398 438 1
399 400 1
399 439 1
400 440 5
401 402 1
401 441 1
402 403 1
402 442 3
403 404 3
403 443 4
404 405 4
404 444 2
405 406 5
405 445 3
406 407 5
406 446 1
407 408 3
407 447 4
408 409 3
408 448 1
409 410 4
409 449 3
410 411 1
410 450 4
411 412 5
411 451 4
412 413 4
412 452 5
413 414 3
413 453 1
414 415 2
414 454 5
415 416 3
415 455 1
416 417 3
416 456 4
417 418 3
417 457 3
418 419 4
418 458 4
419 420 5
419 459 4
420 421 2
420 460 5
421 422 3
421 461 2
422 423 2
422 462 5
423 424 2
423 463 4
424 425 4
424 464 1
425 426 4
425 465 2
426 427 1
426 466 5
427 428 1
427 467 2
428 429 2
428 468 4
429 430 3
429 469 2
430 431 2
430 470 4
431 432 5
431 471 3
432 433 3
432 472 3
433 434 3
433 473 3
434 435 4
434 474 5
435 436 3
435 475 3
436 437 4
436 476 3
437 438 3
437 477 1
438 439 2
438 478 5
439 440 1
439 479 4
440 480 3
441 442 5
441 481 2
442 443 5
442 482 3
443 444 5
443 483 2
444 445 4
444 484 5
445 446 1
445 485 5
446 447 3
446 486 1
447 448 3
447 487 1
448 449 1
448 488 3
449 450 3
449 489 1
450 451 3
450 490 2
451 452 4
451 491 2
452 453 1
452 492 2
453 454 1
453 493 4
454 455 2
454 494 2
455 456 2
455 495 5
456 457 1
456 496 4
457 458 4
457 497 3
458 459 4
458 498 1
459 460 1
459 499 2
460 461 1
460 500 1
461 462 2
461 501 1
462 463 2
462 502 1
463 464 1
463 503 1
464 465 1
464 504 1
465 466 2
465 505 1
466 467 3
466 506 3
467 468 1
467 507 5
468 469 2
468 508 5
469 470 3
469 509 4
470 471 1
470 510 4
471 472 5
471 511 2
472 473 3
472 512 4
473 474 5
473 513 2
474 475 5
474 514 1
475 476 4
475 515 1
476 477 3
476 516 5
477 478 2
477 517 1
478 479 2
478 518 2
479 480 2
479 519 1
480 520 2
481 482 3
481 521 5
482 483 1
482 522 5
483 484 5
483 523 5
484 485 2
484 524 2
485 486 4
485 525 5
486 487 4
486 526 4
487 488 2
487 527 4
488 489 2
488 528 3
489 490 2
489 529 1
490 491 2
490 530 3
491 492 4
491 531 3
492 493 4
492 532 3
493 494 1
493 533 2
494 495 1
494 534 4
495 496 3
495 535 1
496 497 2
496 536 4
497 498 4
497 537 4
498 499 5
498 538 4
499 500 4
499 539 3
500 501 3
500 540 2
501 502 4
501 541 2
502 503 4
502 542 4
503 504 3
503 543 4
504 505 3
504 544 2
505 506 1
505 545 1
506 507 3
506 546 3
507 508 2
507 547 4
508 509 3
508 548 4
509 510 1
509 549 1
510 511 5
510 550 4
511 512 1
511 551 5
512 513 3
512 552 5
513 514 2
513 553 1
514 515 2
514 554 2
515 516 5
515 555 1
516 517 2
516 556 1
517 518 2
517 557 3
518 519 1
518 558 2
519 520 3
519 559 4
520 560 1
521 522 1
521 561 1
522 523 1
522 562 3
523 524 1
523 563 2
524 525 5
524 564 5
525 526 1
525 565 5
526 527 1
526 566 1
527 528 1
527 567 4
528 529 5
528 568 5
529 530 3
529 569 5
530 531 5
530 570 2
531 532 5
531 571 3
532 533 4
532 572 4
533 534 2
533 573 5
534 535 2
534 574 4
535 536 2
535 575 5
536 537 2
536 576 5
537 538 4
537 577 2
538 539 1
538 578 4
539 540 2
539 579 3
540 541 5
540 580 1
541 542 1
541 581 2
542 543 1
542 582 1
543 544 3
543 583 1
544 545 5
544 584 1
545 546 4
545 585 5
546 547 4
546 586 5
547 548 5
547 587 2
548 549 4
548 588 1
549 550 4
549 589 5
550 551 2
550 590 3
551 552 2
551 591 3
552 553 3
552 592 1
553 554 2
553 593 4
554 555 1
554 594 3
555 556 4
555 595 3
556 557 5
556 596 1
557 558 2
557 597 2
558 559 5
558 598 1
559 560 1
559 599 3
560 600 5
561 562 2
561 601 2
562 563 1
562 602 5
563 564 2
563 603 4
564 565 3
564 604 4
565 566 5
565 605 1
566 567 4
566 606 2
567 568 4
567 607 1
568 569 1
568 608 2
569 570 4
569 609 2
570 571 1
570 610 2
571 572 1
571 611 5
572 573 2
572 612 2
573 574 3
573 613 4
574 575 3
574 614 5
575 576 5
575 615 3
576 577 5
576 616 1
577 578 5
577 617 4
578 579 4
578 618 1
579 580 2
579 619 3
580 581 2
580 620 1
581 582 5
581 621 4
582 583 1
582 622 1
583 584 3
583 623 4
584 585 1
584 624 5
585 586 4
585 625 5
586 587 1
586 626 5
587 588 4
587 627 4
588 589 5
588 628 3
589 590 1
589 629 3
590 591 1
590 630 5
591 592 1
591 631 1
592 593 3
592 632 4
593 594 5
593 633 2
594 595 5
594 634 3
595 596 4
595 635 5
596 597 1
596 636 4
597 598 3
597 637 5
598 599 2
598 638 4
599 600 5
599 639 4
600 640 1
601 602 2
601 641 2
602 603 2
602 642 1
603 604 1
603 643 5
604 605 3
604 644 2
605 606 3
605 645 1
606 607 2
606 646 1
607 608 5
607 647 3
608 609 3
608 648 5
609 610 2
609 649 2
610 611 2
610 650 1
611 612 3
611 651 1
612 613 4
612 652 5
613 614 5
613 653 3
614 615 1
614 654 2
615 616 5
615 655 2
616 617 4
616 656 1
617 618 3
617 657 5
618 619 3
618 658 4
619 620 3
619 659 3
620 621 1
620 660 2
621 622 1
621 661 5
622 623 3
622 662 5
623 624 1
623 663 1
624 625 1
624 664 2
625 626 1
625 665 3
626 627 3
626 666 4
627 628 2
627 667 4
628 629 4
628 668 5
629 630 3
629 669 1
630 631 4
630 670 3
631 632 1
631 671 1
632 633 1
632 672 1
633 634 1
633 673 1
634 635 4
634 674 4
635 636 1
635 675 1
636 637 3
636 676 4
637 638 3
637 677 5
638 639 1
638 678 4
639 640 5
639 679 3
640 680 1
641 642 3
641 681 5
642 643 3
642 682 5
643 644 2
643 683 4
644 645 1
644 684 2
645 646 1
645 685 4
646 647 4
646 686 2
647 648 5
647 687 3
648 649 4
648 688 4
649 650 3
649 689 3
650 651 3
650 690 3
651 652 1
651 691 5
652 653 1
652 692 3
653 654 2
653 693 4
654 655 1
654 694 5
655 656 2
655 695 4
656 657 5
656 696 2
657 658 1
657 697 3
658 659 3
658 698 2
659 660 3
659 699 4
660 661 3
660 700 2
661 662 2
661 701 3
662 663 1
662 702 2
663 664 1
663 703 5
664 665 4
664 704 4
665 666 3
665 705 2
666 667 5
666 706 4
667 668 4
667 707 4
668 669 5
668 708 2
669 670 5
669 709 4
670 671 2
670 710 5
671 672 5
671 711 2
672 673 4
672 712 4
673 674 1
673 713 3
674 675 3
674 714 1
675 676 1
675 715 5
676 677 4
676 716 1
677 678 4
677 717 5
678 679 1
678 718 5
679 680 1
679 719 3
680 720 4
681 682 3
681 721 3
682 683 4
682 722 1
683 684 5
683 723 5
684 685 2
684 724 1
685 686 2
685 725 5
686 687 3
686 726 4
687 688 3
687 727 5
688 689 2
688 728 3
689 690 4
689 729 4
690 691 4
690 730 1
691 692 1
691 731 4
692 693 2
692 732 2
693 694 1
693 733 3
694 695 4
694 734 2
695 696 5
695 735 3
696 697 4
696 736 1
697 698 5
697 737 5
698 699 3
698 738 4
699 700 2
699 739 4
700 701 1
700 740 5
701 702 4
701 741 5
702 703 3
702 742 5
703 704 3
703 743 3
704 705 1
704 744 5
705 706 2
705 745 4
706 707 3
706 746 4
707 708 4
707 747 5
708 709 4
708 748 2
709 710 2
709 749 2
710 711 1
710 750 4
711 712 3
711 751 1
712 713 2
712 752 2
713 714 3
713 753 5
714 715 3
714 754 5
715 716 5
715 755 3
716 717 5
716 756 3
717 718 3
717 757 3
718 719 2
718 758 3
719 720 2
719 759 3
720 760 1
721 722 4
721 761 3
722 723 5
722 762 3
723 724 3
723 763 2
724 725 1
724 764 2
725 726 1
725 765 5
726 727 2
726 766 5
727 728 5
727 767 4
728 729 2
728 768 3
729 730 2
729 769 2
730 731 2
730 770 3
731 732 1
731 771 4
732 733 5
732 772 1
733 734 3
733 773 3
734 735 1
734 774 5
735 736 5
735 775 3
736 737 5
736 776 4
737 738 3
737 777 4
738 739 5
738 778 5
739 740 4
739 779 3
740 741 2
740 780 5
741 742 1
741 781 2
742 743 1
742 782 2
743 744 2
743 783 5
744 745 5
744 784 1
745 746 5
745 785 4
746 747 5
746 786 5
747 748 1
747 787 3
748 749 2
748 788 3
749 750 4
749 789 1
750 751 3
750 790 4
751 752 5
751 791 5
752 753 4
752 792 4
753 754 1
753 793 2
754 755 2
754 794 5
755 756 2
755 795 1
756 757 3
756 796 2
757 758 5
757 797 2
758 759 4
758 798 5
759 760 3
759 799 3
760 800 3
761 762 1
761 801 5
762 763 3
762 802 4
763 764 3
763 803 2
764 765 3
764 804 3
765 766 5
765 805 2
766 767 1
766 806 1
767 768 4
767 807 4
768 769 2
768 808 4
769 770 2
769 809 1
770 771 1
770 810 1
771 772 5
771 811 2
772 773 5
772 812 2
773 774 2
773 813 5
774 775 5
774 814 5
775 776 4
775 815 5
776 777 5
776 816 4
777 778 3
777 817 2
778 779 2
778 818 5
779 780 1
779 819 3
780 781 1
780 820 1
781 782 4
781 821 1
782 783 3
782 822 5
783 784 2
783 823 4
784 785 1
784 824 5
785 786 4
785 825 5
786 787 3
786 826 1
787 788 2
787 827 4
788 789 4
788 828 4
789 790 1
789 829 2
790 791 5
790 830 3
791 792 3
791 831 4
792 793 1
792 832 1
793 794 4
793 833 2
794 795 5
794 834 1
795 796 1
795 835 4
796 797 5
796 836 5
797 798 5
797 837 3
798 799 1
798 838 3
799 800 5
799 839 1
800 840 2
801 802 5
801 841 3
802 803 3
802 842 5
803 804 5
803 843 1
804 805 5
804 844 1
805 806 1
805 845 3
806 807 1
806 846 2
807 808 3
807 847 4
808 809 1
808 848 3
809 810 3
809 849 5
810 811 3
810 850 2
811 812 2
811 851 4
812 813 2
812 852 5
813 814 2
813 853 1
814 815 3
814 854 2
815 816 4
815 855 5
816 817 1
816 856 1
817 818 5
817 857 1
818 819 2
818 858 1
819 820 2
819 859 2
820 821 3
820 860 5
821 822 3
821 861 1
822 823 3
822 862 4
823 824 3
823 863 4
824 825 1
824 864 1
825 826 3
825 865 2
826 827 4
826 866 2
827 828 1
827 867 2
828 829 4
828 868 5
829 830 4
829 869 2
830 831 2
830 870 5
831 832 1
831 871 4
832 833 5
832 872 2
833 834 1
833 873 4
834 835 3
834 874 4
835 836 1
835 875 5
836 837 5
836 876 4
837 838 5
837 877 2
838 839 5
838 878 3
839 840 5
839 879 2
840 880 5
841 842 3
841 881 3
842 843 5
842 882 3
843 844 1
843 883 2
844 845 5
844 884 5
845 846 5
845 885 2
846 847 3
846 886 4
847 848 1
847 887 2
848 849 5
848 888 4
849 850 2
849 889 4
850 851 5
850 890 3
851 852 5
851 891 4
852 853 2
852 892 2
853 854 2
853 893 1
854 855 3
854 894 1
855 856 2
855 895 4
856 857 2
856 896 3
857 858 3
857 897 1
858 859 4
858 898 1
859 860 4
859 899 1
860 861 3
860 900 5
861 862 3
861 901 1
862 863 5
862 902 5
863 864 5
863 903 4
864 865 4
864 904 3
865 866 2
865 905 2
866 867 4
866 906 4
867 868 2
867 907 4
868 869 4
868 908 3
869 870 5
869 909 5
870 871 5
870 910 5
871 872 5
871 911 3
872 873 2
872 912 2
873 874 4
873 913 5
874 875 2
874 914 3
875 876 1
875 915 4
876 877 2
876 916 5
877 878 2
877 917 4
878 879 3
878 918 1
879 880 2
879 919 3
880 920 4
881 882 3
881 921 3
882 883 4
882 922 3
883 884 2
883 923 5
884 885 5
884 924 4
885 886 4
885 925 5
886 887 1
886 926 5
887 888 2
887 927 2
888 889 2
888 928 1
889 890 4
889 929 4
890 891 2
890 930 4
891 892 1
891 931 1
892 893 3
892 932 4
893 894 5
893 933 2
894 895 5
894 934 1
895 896 4
895 935 3
896 897 1
896 936 2
897 898 3
897 937 3
898 899 1
898 938 1
899 900 3
899 939 1
900 901 5
900 940 5
901 902 5
901 941 2
902 903 2
902 942 5
903 904 2
903 943 3
904 905 3
904 944 2
905 906 4
905 945 3
906 907 3
906 946 1
907 908 4
907 947 3
908 909 5
908 948 3
909 910 4
909 949 5
910 911 1
910 950 4
911 912 2
911 951 2
912 913 4
912 952 1
913 914 5
913 953 4
914 915 3
914 954 4
915 916 3
915 955 4
916 917 3
916 956 5
917 918 5
917 957 2
918 919 4
918 958 5
919 920 1
919 959 1
920 960 5
921 922 5
921 961 2
922 923 2
922 962 3
923 924 4
923 963 3
924 925 4
924 964 3
925 926 3
925 965 5
926 927 2
926 966 5
927 928 4
927 967 3
928 929 5
928 968 2
929 930 4
929 969 3
930 931 3
930 970 3
931 932 2
931 971 1
932 933 3
932 972 2
933 934 2
933 973 3
934 935 5
934 974 1
935 936 2
935 975 2
936 937 3
936 976 5
937 938 4
937 977 1
938 939 4
938 978 1
939 940 4
939 979 5
940 941 4
940 980 2
941 942 3
941 981 4
942 943 5
942 982 2
943 944 1
943 983 2
944 945 2
944 984 2
945 946 2
945 985 5
946 947 4
946 986 2
947 948 3
947 987 2
948 949 1
948 988 4
949 950 3
949 989 4
950 951 1
950 990 3
951 952 4
951 991 4
952 953 4
952 992 1
953 954 4
953 993 2
954 955 1
954 994 5
955 956 2
955 995 4
956 957 3
956 996 2
957 958 3
957 997 2
958 959 2
958 998 3
959 960 5
959 999 2
960 1000 4
961 962 2
961 1001 3
962 963 2
962 1002 1
963 964 5
963 1003 5
964 965 1
964 1004 1
965 966 3
965 1005 2
966 967 2
966 1006 5
967 968 5
967 1007 2
968 969 5
968 1008 4
969 970 1
969 1009 1
970 971 5
970 1010 2
971 972 3
971 1011 2
972 973 3
972 1012 2
973 974 5
973 1013 1
974 975 1
974 1014 5
975 976 1
975 1015 3
976 977 1
976 1016 2
977 978 3
977 1017 1
978 979 1
978 1018 2
979 980 4
979 1019 3
980 981 4
980 1020 4
981 982 5
981 1021 1
982 983 4
982 1022 5
983 984 3
983 1023 5
984 985 3
984 1024 5
985 986 1
985 1025 5
986 987 2
986 1026 1
987 988 1
987 1027 5
988 989 2
988 1028 5
989 990 3
989 1029 4
990 991 2
990 1030 5
991 992 5
991 1031 4
992 993 5
992 1032 4
993 994 5
993 1033 3
994 995 1
994 1034 4
995 996 3
995 1035 2
996 997 1
996 1036 5
997 998 3
997 1037 3
998 999 2
998 1038 4
999 1000 4
999 1039 4
1000 1040 4
1001 1002 1
1001 1041 3
1002 1003 1
1002 1042 4
1003 1004 3
1003 1043 5
1004 1005 5
1004 1044 4
1005 1006 5
1005 1045 4
1006 1007 5
1006 1046 4
1007 1008 4
1007 1047 2
1008 1009 5
1008 1048 1
1009 1010 1
1009 1049 5
1010 1011 4
1010 1050 4
1011 1012 4
1011 1051 2
1012 1013 5
1012 1052 2
1013 1014 2
1013 1053 1
1014 1015 3
1014 1054 3
1015 1016 2
1015 1055 2
1016 1017 5
1016 1056 1
1017 1018 5
1017 1057 2
1018 1019 3
1018 1058 4
1019 1020 1
1019 1059 3
1020 1021 2
1020 1060 1
1021 1022 1
1021 1061 5
1022 1023 3
1022 1062 1
1023 1024 1
1023 1063 1
1024 1025 1
1024 1064 5
1025 1026 3
1025 1065 3
1026 1027 4
1026 1066 1
1027 1028 2
1027 1067 5
1028 1029 5
1028 1068 4
1029 1030 1
1029 1069 4
1030 1031 3
1030 1070 1
1031 1032 5
1031 1071 4
1032 1033 4
1032 1072 4
1033 1034 4
1033 1073 5
1034 1035 2
1034 1074 2
1035 1036 2
1035 1075 3
1036 1037 4
1036 1076 1
1037 1038 5
1037 1077 3
1038 1039 1
1038 1078 4
1039 1040 4
1039 1079 2
1040 1080 5
1041 1042 4
1041 1081 3
1042 1043 2
1042 1082 4
1043 1044 5
1043 1083 2
1044 1045 5
1044 1084 5
1045 1046 3
1045 1085 1
1046 1047 4
1046 1086 5
1047 1048 4
1047 1087 2
1048 1049 5
1048 1088 4
1049 1050 4
1049 1089 2
1050 1051 1
1050 1090 1
1051 1052 4
1051 1091 1
1052 1053 1
1052 1092 2
1053 1054 4
1053 1093 2
1054 1055 5
1054 1094 2
1055 1056 4
1055 1095 4
1056 1057 5
1056 1096 4
1057 1058 5
1057 1097 1
1058 1059 3
1058 1098 4
1059 1060 5
1059 1099 4
1060 1061 4
1060 1100 4
1061 1062 1
1061 1101 5
1062 1063 3
1062 1102 1
1063 1064 2
1063 1103 5
1064 1065 5
1064 1104 2
1065 1066 1
1065 1105 1
1066 1067 2
1066 1106 1
1067 1068 4
1067 1107 2
1068 1069 4
1068 1108 2
1069 1070 5
1069 1109 5
1070 1071 1
1070 1110 1
1071 1072 1
1071 1111 4
1072 1073 3
1072 1112 3
1073 1074 5
1073 1113 5
1074 1075 2
1074 1114 2
1075 1076 4
1075 1115 2
1076 1077 2
1076 1116 1
1077 1078 3
1077 1117 1
1078 1079 1
1078 1118 1
1079 1080 1
1079 1119 4
1080 1120 4
1081 1082 3
1081 1121 2
1082 1083 5
1082 1122 4
1083 1084 2
1083 1123 4
1084 1085 1
1084 1124 2
1085 1086 5
1085 1125 5
1086 1087 2
1086 1126 3
1087 1088 4
1087 1127 5
1088 1089 1
1088 1128 5
1089 1090 3
1089 1129 1
1090 1091 5
1090 1130 5
1091 1092 4
1091 1131 5
1092 1093 4
1092 1132 4
1093 1094 1
1093 1133 5
1094 1095 2
1094 1134 1
1095 1096 4
1095 1135 3
1096 1097 4
1096 1136 5
1097 1098 1
1097 1137 2
1098 1099 2
1098 1138 1
1099 1100 2
1099 1139 2
1100 1101 5
1100 1140 4
1101 1102 3
1101 1141 5
1102 1103 2
1102 1142 2
1103 1104 3
1103 1143 5
1104 1105 1
1104 1144 4
1105 1106 5
1105 1145 1
1106 1107 4
1106 1146 1
1107 1108 1
1107 1147 2
1108 1109 5
1108 1148 1
1109 1110 2
1109 1149 4
1110 1111 2
1110 1150 4
1111 1112 3
1111 1151 4
1112 1113 4
1112 1152 1
1113 1114 5
1113 1153 5
1114 1115 2
1114 1154 4
1115 1116 5
1115 1155 5
1116 1117 3
1116 1156 3
1117 1118 2
1117 1157 3
1118 1119 3
1118 1158 1
1119 1120 5
1119 1159 3
1120 1160 2
1121 1122 4
1121 1161 2
1122 1123 4
1122 1162 5
1123 1124 2
1123 1163 4
1124 1125 1
1124 1164 3
1125 1126 2
1125 1165 3
1126 1127 1
1126 1166 1
1127 1128 2
1127 1167 1
1128 1129 5
1128 1168 3
1129 1130 2
1129 1169 3
1130 1131 3
1130 1170 5
1131 1132 1
1131 1171 5
1132 1133 5
1132 1172 4
1133 1134 2
1133 1173 5
1134 1135 3
1134 1174 1
1135 1136 5
1135 1175 5
1136 1137 5
1136 1176 3
1137 1138 3
1137 1177 5
1138 1139 1
1138 1178 3
1139 1140 3
1139 1179 4
1140 1141 1
1140 1180 5
1141 1142 4
1141 1181 4
1142 1143 5
1142 1182 5
1143 1144 1
1143 1183 3
1144 1145 4
1144 1184 1
1145 1146 4
1145 1185 5
1146 1147 3
1146 1186 3
1147 1148 3
1147 1187 5
1148 1149 3
1148 1188 1
1149 1150 2
1149 1189 2
1150 1151 2
1150 1190 1
1151 1152 5
1151 1191 1
1152 1153 1
1152 1192 4
1153 1154 2
1153 1193 1
1154 1155 1
1154 1194 5
1155 1156 4
1155 1195 4
1156 1157 4
1156 1196 1
1157 1158 1
1157 1197 3
1158 1159 2
1158 1198 3
1159 1160 4
1159 1199 2
1160 1200 1
1161 1162 5
1161 1201 4
1162 1163 5
1162 1202 1
1163 1164 2
1163 1203 2
1164 1165 4
1164 1204 5
1165 1166 2
1165 1205 5
1166 1167 5
1166 1206 5
1167 1168 2
1167 1207 5
1168 1169 3
1168 1208 2
1169 1170 2
1169 1209 3
1170 1171 1
1170 1210 4
1171 1172 4
1171 1211 3
1172 1173 1
1172 1212 2
1173 1174 5
1173 1213 1
1174 1175 4
1174 1214 5
1175 1176 1
1175 1215 4
1176 1177 3
1176 1216 5
1177 1178 3
1177 1217 3
1178 1179 2
1178 1218 1
1179 1180 1
1179 1219 1
1180 1181 5
1180 1220 3
1181 1182 3
1181 1221 2
1182 1183 5
1182 1222 5
1183 1184 2
1183 1223 5
1184 1185 4
1184 1224 1
1185 1186 2
1185 1225 1
1186 1187 5
1186 1226 3
1187 1188 5
1187 1227 1
1188 1189 2
1188 1228 4
1189 1190 4
1189 1229 5
1190 1191 3
1190 1230 3
1191 1192 2
1191 1231 1
1192 1193 2
1192 1232 1
1193 1194 3
1193 1233 1
1194 1195 4
1194 1234 2
1195 1196 3
1195 1235 1
1196 1197 1
1196 1236 4
1197 1198 3
1197 1237 2
1198 1199 4
1198 1238 3
1199 1200 3
1199 1239 4
1200 1240 3
1201 1202 2
1201 1241 4
1202 1203 5
1202 1242 2
1203 1204 4
1203 1243 3
1204 1205 1
1204 1244 5
1205 1206 3
1205 1245 4
1206 1207 4
1206 1246 4
1207 1208 1
1207 1247 4
1208 1209 2
1208 1248 2
1209 1210 2
1209 1249 4
1210 1211 2
1210 1250 2
1211 1212 4
1211 1251 4
1212 1213 1
1212 1252 1
1213 1214 5
1213 1253 4
1214 1215 5
1214 1254 3
1215 1216 5
1215 1255 2
1216 1217 3
1216 1256 5
1217 1218 3
1217 1257 3
1218 1219 5
1218 1258 5
1219 1220 4
1219 1259 2
1220 1221 2
1220 1260 5
1221 1222 1
1221 1261 1
1222 1223 3
1222 1262 2
1223 1224 3
1223 1263 1
1224 1225 5
1224 1264 3
1225 1226 2
1225 1265 2
1226 1227 5
1226 1266 4
1227 1228 2
1227 1267 1
1228 1229 1
1228 1268 5
1229 1230 4
1229 1269 2
1230 1231 3
1230 1270 5
1231 1232 2
1231 1271 1
1232 1233 1
1232 1272 3
1233 1234 2
1233 1273 3
1234 1235 5
1234 1274 4
1235 1236 2
1235 1275 5
1236 1237 2
1236 1276 3
1237 1238 3
1237 1277 2
1238 1239 3
1238 1278 3
1239 1240 1
1239 1279 5
1240 1280 1
1241 1242 5
1241 1281 2
1242 1243 5
1242 1282 3
1243 1244 5
1243 1283 2
1244 1245 5
1244 1284 4
1245 1246 1
1245 1285 3
1246 1247 1
1246 1286 5
1247 1248 4
1247 1287 1
1248 1249 3
1248 1288 5
1249 1250 5
1249 1289 2
1250 1251 1
1250 1290 4
1251 1252 3
1251 1291 4
1252 1253 1
1252 1292 1
1253 1254 1
1253 1293 4
1254 1255 1
1254 1294 3
1255 1256 5
1255 1295 3
1256 1257 2
1256 1296 3
1257 1258 4
1257 1297 2
1258 1259 5
1258 1298 5
1259 1260 2
1259 1299 3
1260 1261 4
1260 1300 5
1261 1262 5
1261 1301 3
1262 1263 5
1262 1302 3
1263 1264 4
1263 1303 1
1264 1265 4
1264 1304 1
1265 1266 2
1265 1305 5
1266 1267 5
1266 1306 2
1267 1268 2
1267 1307 4
1268 1269 2
1268 1308 4
1269 1270 2
1269 1309 3
1270 1271 5
1270 1310 4
1271 1272 2
1271 1311 4
1272 1273 4
1272 1312 2
1273 1274 5
1273 1313 4
1274 1275 4
1274 1314 4
1275 1276 4
1275 1315 3
1276 1277 5
1276 1316 5
1277 1278 4
1277 1317 2
1278 1279 2
1278 1318 3
1279 1280 3
1279 1319 1
1280 1320 5
1281 1282 2
1281 1321 4
1282 1283 5
1282 1322 1
1283 1284 3
1283 1323 4
1284 1285 3
1284 1324 4
1285 1286 1
1285 1325 2
1286 1287 2
1286 1326 1
1287 1288 2
1287 1327 1
1288 1289 1
1288 1328 2
1289 1290 1
1289 1329 3
1290 1291 2
1290 1330 5
1291 1292 2
1291 1331 3
1292 1293 3
1292 1332 3
1293 1294 4
1293 1333 5
1294 1295 5
1294 1334 2
1295 1296 5
1295 1335 3
1296 1297 4
1296 1336 1
1297 1298 2
1297 1337 5
1298 1299 4
1298 1338 4
1299 1300 3
1299 1339 3
1300 1301 4
1300 1340 5
1301 1302 1
1301 1341 3
1302 1303 1
1302 1342 3
1303 1304 2
1303 1343 5
1304 1305 4
1304 1344 1
1305 1306 2
1305 1345 3
1306 1307 5
1306 1346 1
1307 1308 5
1307 1347 2
1308 1309 4
1308 1348 5
1309 1310 2
1309 1349 1
1310 1311 1
1310 1350 4
1311 1312 2
1311 1351 2
1312 1313 1
1312 1352 1
1313 1314 5
1313 1353 1
1314 1315 2
1314 1354 1
1315 1316 3
1315 1355 4
1316 1317 5
1316 1356 1
1317 1318 3
1317 1357 5
1318 1319 1
1318 1358 1
1319 1320 3
1319 1359 4
1320 1360 3
1321 1322 2
1321 1361 3
1322 1323 4
1322 1362 3
1323 1324 1
1323 1363 4
1324 1325 4
1324 1364 2
1325 1326 5
1325 1365 5
1326 1327 1
1326 1366 2
1327 1328 3
1327 1367 4
1328 1329 2
1328 1368 2
1329 1330 4
1329 1369 5
1330 1331 5
1330 1370 4
1331 1332 3
1331 1371 2
1332 1333 1
1332 1372 1
1333 1334 4
1333 1373 3
1334 1335 5
1334 1374 3
1335 1336 3
1335 1375 3
1336 1337 3
1336 1376 2
1337 1338 2
1337 1377 2
1338 1339 5
1338 1378 3
1339 1340 5
1339 1379 4
1340 1341 1
1340 1380 4
1341 1342 4
1341 1381 5
1342 1343 4
1342 1382 4
1343 1344 3
1343 1383 5
1344 1345 1
1344 1384 1
1345 1346 2
1345 1385 3
1346 1347 4
1346 1386 2
1347 1348 5
1347 1387 2
1348 1349 4
1348 1388 3
1349 1350 2
1349 1389 4
1350 1351 1
1350 1390 1
1351 1352 1
1351 1391 1
1352 1353 1
1352 1392 2
1353 1354 2
1353 1393 1
1354 1355 3
1354 1394 5
1355 1356 4
1355 1395 3
1356 1357 2
1356 1396 4
1357 1358 2
1357 1397 4
1358 1359 1
1358 1398 3
1359 1360 5
1359 1399 2
1360 1400 5
1361 1362 1
1361 1401 2
1362 1363 3
1362 1402 3
1363 1364 2
1363 1403 3
1364 1365 3
1364 1404 3
1365 1366 5
1365 1405 3
1366 1367 3
1366 1406 4
1367 1368 2
1367 1407 4
1368 1369 3
1368 1408 5
1369 1370 4
1369 1409 4
1370 1371 3
1370 1410 4
1371 1372 4
1371 1411 1
1372 1373 2
1372 1412 2
1373 1374 2
1373 1413 2
1374 1375 3
1374 1414 4
1375 1376 2
1375 1415 2
1376 1377 4
1376 1416 3
1377 1378 3
1377 1417 3
1378 1379 3
1378 1418 2
1379 1380 3
1379 1419 4
1380 1381 3
1380 1420 1
1381 1382 5
1381 1421 1
1382 1383 3
1382 1422 4
1383 1384 2
1383 1423 5
1384 1385 4
1384 1424 5
1385 1386 4
1385 1425 2
1386 1387 1
1386 1426 3
1387 1388 3
1387 1427 4
1388 1389 5
1388 1428 4
1389 1390 3
1389 1429 2
1390 1391 1
1390 1430 5
1391 1392 4
1391 1431 3
1392 1393 3
1392 1432 5
1393 1394 3
1393 1433 4
1394 1395 2
1394 1434 5
1395 1396 2
1395 1435 1
1396 1397 4
1396 1436 2
1397 1398 3
1397 1437 1
1398 1399 1
1398 1438 4
1399 1400 3
1399 1439 5
1400 1440 4
1401 1402 1
1401 1441 4
1402 1403 3
1402 1442 2
1403 1404 3
1403 1443 4
1404 1405 2
1404 1444 2
1405 1406 3
1405 1445 2
1406 1407 5
1406 1446 5
1407 1408 5
1407 1447 1
1408 1409 4
1408 1448 5
1409 1410 4
1409 1449 2
1410 1411 1
1410 1450 3
1411 1412 2
1411 1451 3
1412 1413 5
1412 1452 3
1413 1414 5
1413 1453 4
1414 1415 1
1414 1454 5
1415 1416 3
1415 1455 1
1416 1417 4
1416 1456 2
1417 1418 2
1417 1457 1
1418 1419 1
1418 1458 5
1419 1420 4
1419 1459 4
1420 1421 3
1420 1460 4
1421 1422 3
1421 1461 4
1422 1423 1
1422 1462 2
1423 1424 5
1423 1463 2
1424 1425 5
1424 1464 3
1425 1426 3
1425 1465 4
1426 1427 4
1426 1466 4
1427 1428 5
1427 1467 2
1428 1429 4
1428 1468 4
1429 1430 5
1429 1469 2
1430 1431 3
1430 1470 2
1431 1432 3
1431 1471 2
1432 1433 5
1432 1472 2
1433 1434 3
1433 1473 4
1434 1435 2
1434 1474 1
1435 1436 3
1435 1475 5
1436 1437 1
1436 1476 2
1437 1438 2
1437 1477 4
1438 1439 2
1438 1478 5
1439 1440 4
1439 1479 1
1440 1480 3
1441 1442 4
1441 1481 5
1442 1443 4
1442 1482 1
1443 1444 5
1443 1483 3
1444 1445 5
1444 1484 2
1445 1446 1
1445 1485 5
1446 1447 3
1446 1486 2
1447 1448 3
1447 1487 4
1448 1449 5
1448 1488 3
1449 1450 4
1449 1489 2
1450 1451 5
1450 1490 2
1451 1452 5
1451 1491 1
1452 1453 1
1452 1492 4
1453 1454 2
1453 1493 1
1454 1455 4
1454 1494 2
1455 1456 5
1455 1495 2
1456 1457 5
1456 1496 5
1457 1458 5
1457 1497 3
1458 1459 2
1458 1498 2
1459 1460 2
1459 1499 3
1460 1461 5
1460 1500 2
1461 1462 3
1461 1501 2
1462 1463 3
1462 1502 2
1463 1464 2
1463 1503 1
1464 1465 2
1464 1504 3
1465 1466 3
1465 1505 2
1466 1467 5
1466 1506 2
1467 1468 3
1467 1507 2
1468 1469 5
1468 1508 2
1469 1470 2
1469 1509 3
1470 1471 3
1470 1510 5
1471 1472 4
1471 1511 1
1472 1473 1
1472 1512 1
1473 1474 4
1473 1513 5
1474 1475 4
1474 1514 2
1475 1476 4
1475 1515 3
1476 1477 1
1476 1516 4
1477 1478 3
1477 1517 3
1478 1479 5
1478 1518 1
1479 1480 2
1479 1519 5
1480 1520 1
1481 1482 2
1481 1521 5
1482 1483 2
1482 1522 1
1483 1484 3
1483 1523 2
1484 1485 4
1484 1524 4
1485 1486 4
1485 1525 5
1486 1487 5
1486 1526 5
1487 1488 3
1487 1527 3
1488 1489 2
1488 1528 2
1489 1490 1
1489 1529 3
1490 1491 5
1490 1530 1
1491 1492 5
1491 1531 1
1492 1493 3
1492 1532 4
1493 1494 2
1493 1533 5
1494 1495 4
1494 1534 2
1495 1496 2
1495 1535 5
1496 1497 3
1496 1536 1
1497 1498 1
1497 1537 3
1498 1499 1
1498 1538 2
1499 1500 4
1499 1539 5
1500 1501 4
1500 1540 2
1501 1502 2
1501 1541 1
1502 1503 1
1502 1542 4
1503 1504 3
1503 1543 3
1504 1505 2
1504 1544 5
1505 1506 1
1505 1545 2
1506 1507 4
1506 1546 1
1507 1508 5
1507 1547 3
1508 1509 5
1508 1548 2
1509 1510 1
1509 1549 2
1510 1511 3
1510 1550 4
1511 1512 1
1511 1551 4
1512 1513 4
1512 1552 2
1513 1514 2
1513 1553 5
1514 1515 1
1514 1554 2
1515 1516 2
1515 1555 4
1516 1517 5
1516 1556 3
1517 1518 5
1517 1557 3
1518 1519 3
1518 1558 5
1519 1520 1
1519 1559 5
1520 1560 1
1521 1522 3
1521 1561 2
1522 1523 3
1522 1562 3
1523 1524 5
1523 1563 4
1524 1525 1
1524 1564 5
1525 1526 2
1525 1565 1
1526 1527 4
1526 1566 1
1527 1528 4
1527 1567 5
1528 1529 4
1528 1568 3
1529 1530 1
1529 1569 5
1530 1531 1
1530 1570 1
1531 1532 3
1531 1571 2
1532 1533 2
1532 1572 4
1533 1534 2
1533 1573 4
1534 1535 4
1534 1574 3
1535 1536 1
1535 1575 5
1536 1537 5
1536 1576 4
1537 1538 4
1537 1577 3
1538 1539 2
1538 1578 4
1539 1540 3
1539 1579 3
1540 1541 2
1540 1580 1
1541 1542 1
1541 1581 5
1542 1543 2
1542 1582 2
1543 1544 4
1543 1583 5
1544 1545 4
1544 1584 5
1545 1546 3
1545 1585 3
1546 1547 5
1546 1586 4
1547 1548 2
1547 1587 4
1548 1549 5
1548 1588 2
1549 1550 1
1549 1589 4
1550 1551 1
1550 1590 5
1551 1552 2
1551 1591 5
1552 1553 3
1552 1592 4
1553 1554 5
1553 1593 4
1554 1555 2
1554 1594 2
1555 1556 1
1555 1595 4
1556 1557 5
1556 1596 3
1557 1558 5
1557 1597 1
1558 1559 5
1558 1598 2
1559 1560 5
1559 1599 1
1560 1600 3
1561 1562 4
1562 1563 3
1563 1564 4
1564 1565 2
1565 1566 3
1566 1567 5
1567 1568 3
1568 1569 2
1569 1570 1
1570 1571 4
1571 1572 2
1572 1573 4
1573 1574 3
1574 1575 3
1575 1576 2
1576 1577 2
1577 1578 3
1578 1579 3
1579 1580 2
1580 1581 3
1581 1582 4
1582 1583 3
1583 1584 2
1584 1585 5
1585 1586 3
1586 1587 3
1587 1588 5
1588 1589 1
1589 1590 1
1590 1591 3
1591 1592 1
1592 1593 4
1593 1594 2
1594 1595 1
1595 1596 1
1596 1597 4
1597 1598 2
1598 1599 3
1599 1600 3
1 1561 5
2 1562 2
3 1563 1
4 1564 3
5 1565 1
6 1566 3
7 1567 5
8 1568 5
9 1569 4
10 1570 1
11 1571 3
12 1572 2
13 1573 4
14 1574 5
15 1575 2
16 1576 1
17 1577 2
18 1578 2
19 1579 3
20 1580 4
21 1581 4
22 1582 1
23 1583 3
24 1584 5
25 1585 1
26 1586 3
27 1587 1
28 1588 5
29 1589 5
30 1590 1
31 1591 4
32 1592 4
33 1593 3
34 1594 3
35 1595 5
36 1596 5
37 1597 4
38 1598 2
39 1599 2
40 1600 4
1 40 4
41 80 4
81 120 1
121 160 5
161 200 2
201 240 4
241 280 2
281 320 1
321 360 4
361 400 3
401 440 3
441 480 1
481 520 1
521 560 1
561 600 4
601 640 5
641 680 2
681 720 5
721 760 5
761 800 5
801 840 2
841 880 2
881 920 1
921 960 4
961 1000 1
1001 1040 5
1041 1080 2
1081 1120 5
1121 1160 5
1161 1200 3
1201 1240 1
1241 1280 4
1281 1320 3
1321 1360 5
1361 1400 5
1401 1440 3
1441 1480 1
1481 1520 1
1521 1560 2
1561 1600 4
